instances/knapsack/discrete_knapsack_uncertainty/knapsack_130_14.lp
\ Model knapsack_130_14
\ LP format - for model browsing. Use MPS format to capture full model detail.
\ Signature: 0x8c644a484ac146d4
Minimize
  - 64 x[0] - 72 x[1] - 2 x[2] - 18 x[3] - 39 x[4] - 63 x[5] - 59 x[6]
   - 97 x[7] - 88 x[8] - 24 x[9] - 53 x[10] - 97 x[11] - 5 x[12] - 84 x[13]
   - 85 x[14] - 98 x[15] - 36 x[16] - 72 x[17] - 16 x[18] - 27 x[19]
   - 79 x[20] - 57 x[21] - 2 x[22] - 98 x[23] - 67 x[24] - 80 x[25]
   - 38 x[26] - 73 x[27] - 88 x[28] - 70 x[29] - 95 x[30] - 82 x[31]
   - 78 x[32] - 17 x[33] - 85 x[34] - 31 x[35] - 95 x[36] - 25 x[37]
   - 96 x[38] - 93 x[39] - 94 x[40] - 59 x[41] - 63 x[42] - 85 x[43]
   - 44 x[44] - 29 x[45] - 82 x[46] - 2 x[47] - 62 x[48] - 79 x[49]
   - 25 x[50] - 100 x[51] - 13 x[52] - 51 x[53] - 98 x[54] - 4 x[55]
   - 60 x[56] - 66 x[57] - 22 x[58] - 97 x[59] - 90 x[60] - 52 x[61]
   - 19 x[62] - 3 x[63] - 16 x[64] - 75 x[65] - 91 x[66] - 63 x[67]
   - 30 x[68] - 51 x[69] - 15 x[70] - 57 x[71] - 55 x[72] - 11 x[73]
   - 76 x[74] - 84 x[75] - 100 x[76] - 51 x[77] - 26 x[78] - 73 x[79]
   - 85 x[80] - 52 x[81] - 31 x[82] - 48 x[83] - 31 x[84] - 6 x[85]
   - 56 x[86] - 29 x[87] - 22 x[88] - 72 x[89] - 20 x[90] - 39 x[91]
   - 99 x[92] - 66 x[93] - 90 x[94] - 8 x[95] - 63 x[96] - 78 x[97]
   - 78 x[98] - 18 x[99] - 46 x[100] - 95 x[101] - 12 x[102] - 7 x[103]
   - 65 x[104] - 61 x[105] - 40 x[106] - 98 x[107] - 36 x[108] - 6 x[109]
   - 79 x[110] - 44 x[111] - 67 x[112] - 33 x[113] - 56 x[114] - 23 x[115]
   - 17 x[116] - 23 x[117] - 28 x[118] - 33 x[119] - 51 x[120] - 56 x[121]
   - 16 x[122] - 21 x[123] - 69 x[124] - 2 x[125] - 38 x[126] - 20 x[127]
   - 29 x[128] - 10 x[129]
Subject To
 primal_upper: 47 x[0] + 92 x[1] + 42 x[2] + 27 x[3] + 28 x[4] + 25 x[5]
   + 93 x[6] + 67 x[7] + 33 x[8] + 30 x[9] + 63 x[10] + 47 x[11] + 96 x[12]
   + 32 x[13] + 68 x[14] + 4 x[15] + 13 x[16] + 96 x[17] + 81 x[18]
   + 18 x[19] + 93 x[20] + 19 x[21] + 36 x[22] + 6 x[23] + 20 x[24]
   + 40 x[25] + 62 x[26] + 71 x[27] + 97 x[28] + 43 x[29] + 21 x[30]
   + 55 x[31] + 39 x[32] + x[33] + 16 x[34] + 77 x[35] + 12 x[36]
   + 44 x[37] + 20 x[38] + 86 x[39] + 91 x[40] + 81 x[41] + 66 x[42]
   + 89 x[43] + 7 x[44] + 90 x[45] + 21 x[46] + 49 x[47] + 39 x[48]
   + 4 x[49] + 62 x[50] + 92 x[51] + 89 x[52] + 44 x[53] + 84 x[54]
   + 71 x[55] + 49 x[56] + 30 x[57] + 8 x[58] + 98 x[59] + 48 x[60]
   + 70 x[61] + 75 x[62] + 30 x[63] + 35 x[64] + 84 x[65] + 44 x[66]
   + 22 x[67] + 84 x[68] + 81 x[69] + 29 x[70] + 29 x[71] + 82 x[72]
   + 51 x[73] + 31 x[74] + 100 x[75] + 74 x[76] + 35 x[77] + 76 x[78]
   + 54 x[79] + 37 x[80] + 25 x[81] + 38 x[82] + 29 x[83] + 93 x[84]
   + 73 x[85] + 39 x[86] + 4 x[87] + 94 x[88] + 91 x[89] + 64 x[90]
   + 28 x[91] + 24 x[92] + 11 x[93] + 96 x[94] + 33 x[95] + 89 x[96]
   + 52 x[97] + 32 x[98] + 60 x[99] + 81 x[100] + 60 x[101] + 62 x[102]
   + 80 x[103] + 61 x[104] + 2 x[105] + 15 x[106] + 26 x[107] + 42 x[108]
   + 37 x[109] + 26 x[110] + 79 x[111] + 85 x[112] + 21 x[113] + 73 x[114]
   + 70 x[115] + 79 x[116] + 13 x[117] + 37 x[118] + 16 x[119] + 83 x[120]
   + 48 x[121] + 27 x[122] + 10 x[123] + 61 x[124] + 70 x[125] + 19 x[126]
   + 51 x[127] + 74 x[128] + 35 x[129] + 4.7 r[0] + 9.2 r[1] + 4.2 r[2]
   + 2.7 r[3] + 2.8 r[4] + 2.5 r[5] + 9.3 r[6] + 6.7 r[7] + 3.3 r[8]
   + 3 r[9] + 6.3 r[10] + 4.7 r[11] + 9.6 r[12] + 3.2 r[13] + 6.8 r[14]
   + 0.4 r[15] + 1.3 r[16] + 9.6 r[17] + 8.1 r[18] + 1.8 r[19] + 9.3 r[20]
   + 1.9 r[21] + 3.6 r[22] + 0.6 r[23] + 2 r[24] + 4 r[25] + 6.2 r[26]
   + 7.1 r[27] + 9.7 r[28] + 4.3 r[29] + 2.1 r[30] + 5.5 r[31] + 3.9 r[32]
   + 0.1 r[33] + 1.6 r[34] + 7.7 r[35] + 1.2 r[36] + 4.4 r[37] + 2 r[38]
   + 8.6 r[39] + 9.1 r[40] + 8.1 r[41] + 6.6 r[42] + 8.9 r[43] + 0.7 r[44]
   + 9 r[45] + 2.1 r[46] + 4.9 r[47] + 3.9 r[48] + 0.4 r[49] + 6.2 r[50]
   + 9.2 r[51] + 8.9 r[52] + 4.4 r[53] + 8.4 r[54] + 7.1 r[55] + 4.9 r[56]
   + 3 r[57] + 0.8 r[58] + 9.8 r[59] + 4.8 r[60] + 7 r[61] + 7.5 r[62]
   + 3 r[63] + 3.5 r[64] + 8.4 r[65] + 4.4 r[66] + 2.2 r[67] + 8.4 r[68]
   + 8.1 r[69] + 2.9 r[70] + 2.9 r[71] + 8.2 r[72] + 5.1 r[73] + 3.1 r[74]
   + 10 r[75] + 7.4 r[76] + 3.5 r[77] + 7.6 r[78] + 5.4 r[79] + 3.7 r[80]
   + 2.5 r[81] + 3.8 r[82] + 2.9 r[83] + 9.3 r[84] + 7.3 r[85] + 3.9 r[86]
   + 0.4 r[87] + 9.4 r[88] + 9.1 r[89] + 6.4 r[90] + 2.8 r[91] + 2.4 r[92]
   + 1.1 r[93] + 9.6 r[94] + 3.3 r[95] + 8.9 r[96] + 5.2 r[97] + 3.2 r[98]
   + 6 r[99] + 8.1 r[100] + 6 r[101] + 6.2 r[102] + 8 r[103] + 6.1 r[104]
   + 0.2 r[105] + 1.5 r[106] + 2.6 r[107] + 4.2 r[108] + 3.7 r[109]
   + 2.6 r[110] + 7.9 r[111] + 8.5 r[112] + 2.1 r[113] + 7.3 r[114]
   + 7 r[115] + 7.9 r[116] + 1.3 r[117] + 3.7 r[118] + 1.6 r[119]
   + 8.3 r[120] + 4.8 r[121] + 2.7 r[122] + r[123] + 6.1 r[124] + 7 r[125]
   + 1.9 r[126] + 5.1 r[127] + 7.4 r[128] + 3.5 r[129] <= 629
 primal_lower: 2.565793957392135 x[0] + 0.3981301345191864 x[1]
   + 0.7320593055565522 x[2] + 1.595852730111915 x[3]
   + 3.872891193530197 x[4] + 0.4094612971203606 x[5]
   + 3.478857626171387 x[6] + 0.7116525060117161 x[7]
   + 0.2239763454374429 x[8] + 0.2756019734690284 x[9]
   + 2.526820569981051 x[10] + 4.511104251753143 x[11]
   + 0.8063700227985345 x[12] + 2.275047416929492 x[13]
   + 3.430695619175833 x[14] + 4.539137744534076 x[15]
   + 1.067607080440449 x[16] + 2.915010222520568 x[17]
   + 3.420570258092381 x[18] + 3.608446802063418 x[19]
   + 4.184013730657126 x[20] + 3.870399052144954 x[21]
   + 4.181945993317895 x[22] + 1.191114232192267 x[23]
   + 2.945610737522289 x[24] + 3.806447953852478 x[25]
   + 3.507406868668396 x[26] + 1.833223298267624 x[27]
   + 0.2612689136391712 x[28] + 1.38248858151858 x[29]
   + 4.016993061283065 x[30] + 1.973673202766157 x[31]
   + 4.552920433513719 x[32] + 2.348173084976239 x[33]
   + 0.0718186440098785 x[34] + 3.31936207600192 x[35]
   + 1.401947705862478 x[36] + 3.761111048923869 x[37]
   + 3.445028223670886 x[38] + 0.5100217370080287 x[39]
   + 2.837616234441379 x[40] + 4.513240339856532 x[41]
   + 3.388987739044512 x[42] + 4.652805162584821 x[43]
   + 4.674829093627084 x[44] + 1.827215848059036 x[45]
   + 3.470794360526957 x[46] + 1.255936372526275 x[47]
   + 2.63490311636281 x[48] + 1.508983162478196 x[49]
   + 3.702584291649759 x[50] + 3.781911376578856 x[51]
   + 0.1532768193827867 x[52] + 3.816176228993544 x[53]
   + 1.516928537661378 x[54] + 2.505259657846739 x[55]
   + 2.185995327554984 x[56] + 0.6350752151048515 x[57]
   + 0.4620058966531753 x[58] + 1.961507999339007 x[59]
   + 0.6985997477363641 x[60] + 4.393066257121915 x[61]
   + 1.787582221065537 x[62] + 3.58893292601212 x[63]
   + 0.3598790686333663 x[64] + 3.8698411343559 x[65]
   + 2.146155925299712 x[66] + 2.378139109478605 x[67]
   + 4.02782096754692 x[68] + 4.348824491181593 x[69]
   + 1.524601196229368 x[70] + 3.16340067708179 x[71]
   + 0.6609048297122596 x[72] + 1.861353319367271 x[73]
   + 4.107554932967761 x[74] + 0.6305340263880697 x[75]
   + 1.603772682383158 x[76] + 1.020384530664604 x[77]
   + 3.07309309332123 x[78] + 1.547564809839776 x[79]
   + 0.8118398310632942 x[80] + 0.9581791811461762 x[81]
   + 2.60193788085631 x[82] + 3.323339115738793 x[83]
   + 1.043023067932139 x[84] + 2.379488484595979 x[85]
   + 1.671177890589776 x[86] + 4.490529103865158 x[87]
   + 3.650172311878609 x[88] + 1.573756978916868 x[89]
   + 2.466580091254064 x[90] + 3.406300407131139 x[91]
   + 1.108594231073791 x[92] + 1.616327504305558 x[93]
   + 0.9296837404383007 x[94] + 2.674466577946319 x[95]
   + 2.693103040602319 x[96] + 1.403798036477476 x[97]
   + 4.482657242132118 x[98] + 2.415956051408845 x[99]
   + 3.490004544158442 x[100] + 3.273284733173531 x[101]
   + 1.28613886608405 x[102] + 0.4743005218698957 x[103]
   + 1.21122176119219 x[104] + 1.948958184579716 x[105]
   + 1.468818045207385 x[106] + 1.37587282537943 x[107]
   + 2.184027398187016 x[108] + 0.1551006714019117 x[109]
   + 1.511437278355604 x[110] + 3.649055786308195 x[111]
   + 2.34454942404481 x[112] + 0.6945777450321391 x[113]
   + 4.066791919913882 x[114] + 4.601208583834207 x[115]
   + 0.6106965774783846 x[116] + 0.2666713076413568 x[117]
   + 1.975175893611086 x[118] + 3.779468245379372 x[119]
   + 0.5415280368882448 x[120] + 1.001967711935923 x[121]
   + 2.989437708195405 x[122] + 0.2275636831537751 x[123]
   + 1.578597912687335 x[124] + 3.995614285642222 x[125]
   + 2.432599864918682 x[126] + 0.1618536253426899 x[127]
   + 1.932057693298186 x[128] + 0.6550784205397323 x[129] + 77 u[0]
   + 26 u[1] + 76 u[2] + 89 u[3] + 14 u[4] + 47 u[5] + 31 u[6] + 45 u[7]
   + 91 u[8] + 56 u[9] + 89 u[10] + 9 u[11] + 34 u[12] + 70 u[13]
   + 46 u[14] + 74 u[15] + 15 u[16] + 42 u[17] + 67 u[18] + 40 u[19]
   + 47 u[20] + 73 u[21] + 42 u[22] + 80 u[23] + 42 u[24] + 18 u[25]
   + 28 u[26] + 37 u[27] + 15 u[28] + 29 u[29] + 15 u[30] + 29 u[31]
   + u[32] + 79 u[33] + 62 u[34] + 27 u[35] + 78 u[36] + 26 u[37]
   + 98 u[38] + 100 u[39] + 85 u[40] + 67 u[41] + 40 u[42] + 91 u[43]
   + 61 u[44] + 12 u[45] + 27 u[46] + 47 u[47] + u[48] + 22 u[49]
   + 20 u[50] + 38 u[51] + 83 u[52] + 18 u[53] + 6 u[54] + 93 u[55]
   + 87 u[56] + 72 u[57] + 74 u[58] + 20 u[59] + 2 u[60] + 60 u[61]
   + 81 u[62] + 8 u[63] + 41 u[64] + 2 u[65] + 54 u[66] + 48 u[67]
   + 14 u[68] + 19 u[69] + 91 u[70] + 47 u[71] + 32 u[72] + 61 u[73]
   + 85 u[74] + 46 u[75] + 40 u[76] + 41 u[77] + 86 u[78] + 56 u[79]
   + 3 u[80] + 23 u[81] + 96 u[82] + 83 u[83] + 23 u[84] + 87 u[85]
   + 77 u[86] + 38 u[87] + 4 u[88] + 17 u[89] + 22 u[90] + 54 u[91]
   + 26 u[92] + 89 u[93] + 78 u[94] + 43 u[95] + 39 u[96] + 34 u[97]
   + 34 u[98] + 30 u[99] + 3 u[100] + 26 u[101] + 20 u[102] + 46 u[103]
   + 87 u[104] + 76 u[105] + 61 u[106] + 36 u[107] + 68 u[108] + 55 u[109]
   + 76 u[110] + 65 u[111] + 27 u[112] + 95 u[113] + 31 u[114] + 84 u[115]
   + 21 u[116] + 95 u[117] + 35 u[118] + 18 u[119] + 73 u[120] + 46 u[121]
   + 85 u[122] + 84 u[123] + 91 u[124] + 68 u[125] + 57 u[126] + 73 u[127]
   + 52 u[128] + u[129] <= 6417
 mccormick1[0]: - u[0] + r[0] <= 0
 mccormick1[1]: - u[1] + r[1] <= 0
 mccormick1[2]: - u[2] + r[2] <= 0
 mccormick1[3]: - u[3] + r[3] <= 0
 mccormick1[4]: - u[4] + r[4] <= 0
 mccormick1[5]: - u[5] + r[5] <= 0
 mccormick1[6]: - u[6] + r[6] <= 0
 mccormick1[7]: - u[7] + r[7] <= 0
 mccormick1[8]: - u[8] + r[8] <= 0
 mccormick1[9]: - u[9] + r[9] <= 0
 mccormick1[10]: - u[10] + r[10] <= 0
 mccormick1[11]: - u[11] + r[11] <= 0
 mccormick1[12]: - u[12] + r[12] <= 0
 mccormick1[13]: - u[13] + r[13] <= 0
 mccormick1[14]: - u[14] + r[14] <= 0
 mccormick1[15]: - u[15] + r[15] <= 0
 mccormick1[16]: - u[16] + r[16] <= 0
 mccormick1[17]: - u[17] + r[17] <= 0
 mccormick1[18]: - u[18] + r[18] <= 0
 mccormick1[19]: - u[19] + r[19] <= 0
 mccormick1[20]: - u[20] + r[20] <= 0
 mccormick1[21]: - u[21] + r[21] <= 0
 mccormick1[22]: - u[22] + r[22] <= 0
 mccormick1[23]: - u[23] + r[23] <= 0
 mccormick1[24]: - u[24] + r[24] <= 0
 mccormick1[25]: - u[25] + r[25] <= 0
 mccormick1[26]: - u[26] + r[26] <= 0
 mccormick1[27]: - u[27] + r[27] <= 0
 mccormick1[28]: - u[28] + r[28] <= 0
 mccormick1[29]: - u[29] + r[29] <= 0
 mccormick1[30]: - u[30] + r[30] <= 0
 mccormick1[31]: - u[31] + r[31] <= 0
 mccormick1[32]: - u[32] + r[32] <= 0
 mccormick1[33]: - u[33] + r[33] <= 0
 mccormick1[34]: - u[34] + r[34] <= 0
 mccormick1[35]: - u[35] + r[35] <= 0
 mccormick1[36]: - u[36] + r[36] <= 0
 mccormick1[37]: - u[37] + r[37] <= 0
 mccormick1[38]: - u[38] + r[38] <= 0
 mccormick1[39]: - u[39] + r[39] <= 0
 mccormick1[40]: - u[40] + r[40] <= 0
 mccormick1[41]: - u[41] + r[41] <= 0
 mccormick1[42]: - u[42] + r[42] <= 0
 mccormick1[43]: - u[43] + r[43] <= 0
 mccormick1[44]: - u[44] + r[44] <= 0
 mccormick1[45]: - u[45] + r[45] <= 0
 mccormick1[46]: - u[46] + r[46] <= 0
 mccormick1[47]: - u[47] + r[47] <= 0
 mccormick1[48]: - u[48] + r[48] <= 0
 mccormick1[49]: - u[49] + r[49] <= 0
 mccormick1[50]: - u[50] + r[50] <= 0
 mccormick1[51]: - u[51] + r[51] <= 0
 mccormick1[52]: - u[52] + r[52] <= 0
 mccormick1[53]: - u[53] + r[53] <= 0
 mccormick1[54]: - u[54] + r[54] <= 0
 mccormick1[55]: - u[55] + r[55] <= 0
 mccormick1[56]: - u[56] + r[56] <= 0
 mccormick1[57]: - u[57] + r[57] <= 0
 mccormick1[58]: - u[58] + r[58] <= 0
 mccormick1[59]: - u[59] + r[59] <= 0
 mccormick1[60]: - u[60] + r[60] <= 0
 mccormick1[61]: - u[61] + r[61] <= 0
 mccormick1[62]: - u[62] + r[62] <= 0
 mccormick1[63]: - u[63] + r[63] <= 0
 mccormick1[64]: - u[64] + r[64] <= 0
 mccormick1[65]: - u[65] + r[65] <= 0
 mccormick1[66]: - u[66] + r[66] <= 0
 mccormick1[67]: - u[67] + r[67] <= 0
 mccormick1[68]: - u[68] + r[68] <= 0
 mccormick1[69]: - u[69] + r[69] <= 0
 mccormick1[70]: - u[70] + r[70] <= 0
 mccormick1[71]: - u[71] + r[71] <= 0
 mccormick1[72]: - u[72] + r[72] <= 0
 mccormick1[73]: - u[73] + r[73] <= 0
 mccormick1[74]: - u[74] + r[74] <= 0
 mccormick1[75]: - u[75] + r[75] <= 0
 mccormick1[76]: - u[76] + r[76] <= 0
 mccormick1[77]: - u[77] + r[77] <= 0
 mccormick1[78]: - u[78] + r[78] <= 0
 mccormick1[79]: - u[79] + r[79] <= 0
 mccormick1[80]: - u[80] + r[80] <= 0
 mccormick1[81]: - u[81] + r[81] <= 0
 mccormick1[82]: - u[82] + r[82] <= 0
 mccormick1[83]: - u[83] + r[83] <= 0
 mccormick1[84]: - u[84] + r[84] <= 0
 mccormick1[85]: - u[85] + r[85] <= 0
 mccormick1[86]: - u[86] + r[86] <= 0
 mccormick1[87]: - u[87] + r[87] <= 0
 mccormick1[88]: - u[88] + r[88] <= 0
 mccormick1[89]: - u[89] + r[89] <= 0
 mccormick1[90]: - u[90] + r[90] <= 0
 mccormick1[91]: - u[91] + r[91] <= 0
 mccormick1[92]: - u[92] + r[92] <= 0
 mccormick1[93]: - u[93] + r[93] <= 0
 mccormick1[94]: - u[94] + r[94] <= 0
 mccormick1[95]: - u[95] + r[95] <= 0
 mccormick1[96]: - u[96] + r[96] <= 0
 mccormick1[97]: - u[97] + r[97] <= 0
 mccormick1[98]: - u[98] + r[98] <= 0
 mccormick1[99]: - u[99] + r[99] <= 0
 mccormick1[100]: - u[100] + r[100] <= 0
 mccormick1[101]: - u[101] + r[101] <= 0
 mccormick1[102]: - u[102] + r[102] <= 0
 mccormick1[103]: - u[103] + r[103] <= 0
 mccormick1[104]: - u[104] + r[104] <= 0
 mccormick1[105]: - u[105] + r[105] <= 0
 mccormick1[106]: - u[106] + r[106] <= 0
 mccormick1[107]: - u[107] + r[107] <= 0
 mccormick1[108]: - u[108] + r[108] <= 0
 mccormick1[109]: - u[109] + r[109] <= 0
 mccormick1[110]: - u[110] + r[110] <= 0
 mccormick1[111]: - u[111] + r[111] <= 0
 mccormick1[112]: - u[112] + r[112] <= 0
 mccormick1[113]: - u[113] + r[113] <= 0
 mccormick1[114]: - u[114] + r[114] <= 0
 mccormick1[115]: - u[115] + r[115] <= 0
 mccormick1[116]: - u[116] + r[116] <= 0
 mccormick1[117]: - u[117] + r[117] <= 0
 mccormick1[118]: - u[118] + r[118] <= 0
 mccormick1[119]: - u[119] + r[119] <= 0
 mccormick1[120]: - u[120] + r[120] <= 0
 mccormick1[121]: - u[121] + r[121] <= 0
 mccormick1[122]: - u[122] + r[122] <= 0
 mccormick1[123]: - u[123] + r[123] <= 0
 mccormick1[124]: - u[124] + r[124] <= 0
 mccormick1[125]: - u[125] + r[125] <= 0
 mccormick1[126]: - u[126] + r[126] <= 0
 mccormick1[127]: - u[127] + r[127] <= 0
 mccormick1[128]: - u[128] + r[128] <= 0
 mccormick1[129]: - u[129] + r[129] <= 0
 mccormick2[0]: - x[0] + r[0] <= 0
 mccormick2[1]: - x[1] + r[1] <= 0
 mccormick2[2]: - x[2] + r[2] <= 0
 mccormick2[3]: - x[3] + r[3] <= 0
 mccormick2[4]: - x[4] + r[4] <= 0
 mccormick2[5]: - x[5] + r[5] <= 0
 mccormick2[6]: - x[6] + r[6] <= 0
 mccormick2[7]: - x[7] + r[7] <= 0
 mccormick2[8]: - x[8] + r[8] <= 0
 mccormick2[9]: - x[9] + r[9] <= 0
 mccormick2[10]: - x[10] + r[10] <= 0
 mccormick2[11]: - x[11] + r[11] <= 0
 mccormick2[12]: - x[12] + r[12] <= 0
 mccormick2[13]: - x[13] + r[13] <= 0
 mccormick2[14]: - x[14] + r[14] <= 0
 mccormick2[15]: - x[15] + r[15] <= 0
 mccormick2[16]: - x[16] + r[16] <= 0
 mccormick2[17]: - x[17] + r[17] <= 0
 mccormick2[18]: - x[18] + r[18] <= 0
 mccormick2[19]: - x[19] + r[19] <= 0
 mccormick2[20]: - x[20] + r[20] <= 0
 mccormick2[21]: - x[21] + r[21] <= 0
 mccormick2[22]: - x[22] + r[22] <= 0
 mccormick2[23]: - x[23] + r[23] <= 0
 mccormick2[24]: - x[24] + r[24] <= 0
 mccormick2[25]: - x[25] + r[25] <= 0
 mccormick2[26]: - x[26] + r[26] <= 0
 mccormick2[27]: - x[27] + r[27] <= 0
 mccormick2[28]: - x[28] + r[28] <= 0
 mccormick2[29]: - x[29] + r[29] <= 0
 mccormick2[30]: - x[30] + r[30] <= 0
 mccormick2[31]: - x[31] + r[31] <= 0
 mccormick2[32]: - x[32] + r[32] <= 0
 mccormick2[33]: - x[33] + r[33] <= 0
 mccormick2[34]: - x[34] + r[34] <= 0
 mccormick2[35]: - x[35] + r[35] <= 0
 mccormick2[36]: - x[36] + r[36] <= 0
 mccormick2[37]: - x[37] + r[37] <= 0
 mccormick2[38]: - x[38] + r[38] <= 0
 mccormick2[39]: - x[39] + r[39] <= 0
 mccormick2[40]: - x[40] + r[40] <= 0
 mccormick2[41]: - x[41] + r[41] <= 0
 mccormick2[42]: - x[42] + r[42] <= 0
 mccormick2[43]: - x[43] + r[43] <= 0
 mccormick2[44]: - x[44] + r[44] <= 0
 mccormick2[45]: - x[45] + r[45] <= 0
 mccormick2[46]: - x[46] + r[46] <= 0
 mccormick2[47]: - x[47] + r[47] <= 0
 mccormick2[48]: - x[48] + r[48] <= 0
 mccormick2[49]: - x[49] + r[49] <= 0
 mccormick2[50]: - x[50] + r[50] <= 0
 mccormick2[51]: - x[51] + r[51] <= 0
 mccormick2[52]: - x[52] + r[52] <= 0
 mccormick2[53]: - x[53] + r[53] <= 0
 mccormick2[54]: - x[54] + r[54] <= 0
 mccormick2[55]: - x[55] + r[55] <= 0
 mccormick2[56]: - x[56] + r[56] <= 0
 mccormick2[57]: - x[57] + r[57] <= 0
 mccormick2[58]: - x[58] + r[58] <= 0
 mccormick2[59]: - x[59] + r[59] <= 0
 mccormick2[60]: - x[60] + r[60] <= 0
 mccormick2[61]: - x[61] + r[61] <= 0
 mccormick2[62]: - x[62] + r[62] <= 0
 mccormick2[63]: - x[63] + r[63] <= 0
 mccormick2[64]: - x[64] + r[64] <= 0
 mccormick2[65]: - x[65] + r[65] <= 0
 mccormick2[66]: - x[66] + r[66] <= 0
 mccormick2[67]: - x[67] + r[67] <= 0
 mccormick2[68]: - x[68] + r[68] <= 0
 mccormick2[69]: - x[69] + r[69] <= 0
 mccormick2[70]: - x[70] + r[70] <= 0
 mccormick2[71]: - x[71] + r[71] <= 0
 mccormick2[72]: - x[72] + r[72] <= 0
 mccormick2[73]: - x[73] + r[73] <= 0
 mccormick2[74]: - x[74] + r[74] <= 0
 mccormick2[75]: - x[75] + r[75] <= 0
 mccormick2[76]: - x[76] + r[76] <= 0
 mccormick2[77]: - x[77] + r[77] <= 0
 mccormick2[78]: - x[78] + r[78] <= 0
 mccormick2[79]: - x[79] + r[79] <= 0
 mccormick2[80]: - x[80] + r[80] <= 0
 mccormick2[81]: - x[81] + r[81] <= 0
 mccormick2[82]: - x[82] + r[82] <= 0
 mccormick2[83]: - x[83] + r[83] <= 0
 mccormick2[84]: - x[84] + r[84] <= 0
 mccormick2[85]: - x[85] + r[85] <= 0
 mccormick2[86]: - x[86] + r[86] <= 0
 mccormick2[87]: - x[87] + r[87] <= 0
 mccormick2[88]: - x[88] + r[88] <= 0
 mccormick2[89]: - x[89] + r[89] <= 0
 mccormick2[90]: - x[90] + r[90] <= 0
 mccormick2[91]: - x[91] + r[91] <= 0
 mccormick2[92]: - x[92] + r[92] <= 0
 mccormick2[93]: - x[93] + r[93] <= 0
 mccormick2[94]: - x[94] + r[94] <= 0
 mccormick2[95]: - x[95] + r[95] <= 0
 mccormick2[96]: - x[96] + r[96] <= 0
 mccormick2[97]: - x[97] + r[97] <= 0
 mccormick2[98]: - x[98] + r[98] <= 0
 mccormick2[99]: - x[99] + r[99] <= 0
 mccormick2[100]: - x[100] + r[100] <= 0
 mccormick2[101]: - x[101] + r[101] <= 0
 mccormick2[102]: - x[102] + r[102] <= 0
 mccormick2[103]: - x[103] + r[103] <= 0
 mccormick2[104]: - x[104] + r[104] <= 0
 mccormick2[105]: - x[105] + r[105] <= 0
 mccormick2[106]: - x[106] + r[106] <= 0
 mccormick2[107]: - x[107] + r[107] <= 0
 mccormick2[108]: - x[108] + r[108] <= 0
 mccormick2[109]: - x[109] + r[109] <= 0
 mccormick2[110]: - x[110] + r[110] <= 0
 mccormick2[111]: - x[111] + r[111] <= 0
 mccormick2[112]: - x[112] + r[112] <= 0
 mccormick2[113]: - x[113] + r[113] <= 0
 mccormick2[114]: - x[114] + r[114] <= 0
 mccormick2[115]: - x[115] + r[115] <= 0
 mccormick2[116]: - x[116] + r[116] <= 0
 mccormick2[117]: - x[117] + r[117] <= 0
 mccormick2[118]: - x[118] + r[118] <= 0
 mccormick2[119]: - x[119] + r[119] <= 0
 mccormick2[120]: - x[120] + r[120] <= 0
 mccormick2[121]: - x[121] + r[121] <= 0
 mccormick2[122]: - x[122] + r[122] <= 0
 mccormick2[123]: - x[123] + r[123] <= 0
 mccormick2[124]: - x[124] + r[124] <= 0
 mccormick2[125]: - x[125] + r[125] <= 0
 mccormick2[126]: - x[126] + r[126] <= 0
 mccormick2[127]: - x[127] + r[127] <= 0
 mccormick2[128]: - x[128] + r[128] <= 0
 mccormick2[129]: - x[129] + r[129] <= 0
 mccormick3[0]: x[0] + u[0] - r[0] <= 1
 mccormick3[1]: x[1] + u[1] - r[1] <= 1
 mccormick3[2]: x[2] + u[2] - r[2] <= 1
 mccormick3[3]: x[3] + u[3] - r[3] <= 1
 mccormick3[4]: x[4] + u[4] - r[4] <= 1
 mccormick3[5]: x[5] + u[5] - r[5] <= 1
 mccormick3[6]: x[6] + u[6] - r[6] <= 1
 mccormick3[7]: x[7] + u[7] - r[7] <= 1
 mccormick3[8]: x[8] + u[8] - r[8] <= 1
 mccormick3[9]: x[9] + u[9] - r[9] <= 1
 mccormick3[10]: x[10] + u[10] - r[10] <= 1
 mccormick3[11]: x[11] + u[11] - r[11] <= 1
 mccormick3[12]: x[12] + u[12] - r[12] <= 1
 mccormick3[13]: x[13] + u[13] - r[13] <= 1
 mccormick3[14]: x[14] + u[14] - r[14] <= 1
 mccormick3[15]: x[15] + u[15] - r[15] <= 1
 mccormick3[16]: x[16] + u[16] - r[16] <= 1
 mccormick3[17]: x[17] + u[17] - r[17] <= 1
 mccormick3[18]: x[18] + u[18] - r[18] <= 1
 mccormick3[19]: x[19] + u[19] - r[19] <= 1
 mccormick3[20]: x[20] + u[20] - r[20] <= 1
 mccormick3[21]: x[21] + u[21] - r[21] <= 1
 mccormick3[22]: x[22] + u[22] - r[22] <= 1
 mccormick3[23]: x[23] + u[23] - r[23] <= 1
 mccormick3[24]: x[24] + u[24] - r[24] <= 1
 mccormick3[25]: x[25] + u[25] - r[25] <= 1
 mccormick3[26]: x[26] + u[26] - r[26] <= 1
 mccormick3[27]: x[27] + u[27] - r[27] <= 1
 mccormick3[28]: x[28] + u[28] - r[28] <= 1
 mccormick3[29]: x[29] + u[29] - r[29] <= 1
 mccormick3[30]: x[30] + u[30] - r[30] <= 1
 mccormick3[31]: x[31] + u[31] - r[31] <= 1
 mccormick3[32]: x[32] + u[32] - r[32] <= 1
 mccormick3[33]: x[33] + u[33] - r[33] <= 1
 mccormick3[34]: x[34] + u[34] - r[34] <= 1
 mccormick3[35]: x[35] + u[35] - r[35] <= 1
 mccormick3[36]: x[36] + u[36] - r[36] <= 1
 mccormick3[37]: x[37] + u[37] - r[37] <= 1
 mccormick3[38]: x[38] + u[38] - r[38] <= 1
 mccormick3[39]: x[39] + u[39] - r[39] <= 1
 mccormick3[40]: x[40] + u[40] - r[40] <= 1
 mccormick3[41]: x[41] + u[41] - r[41] <= 1
 mccormick3[42]: x[42] + u[42] - r[42] <= 1
 mccormick3[43]: x[43] + u[43] - r[43] <= 1
 mccormick3[44]: x[44] + u[44] - r[44] <= 1
 mccormick3[45]: x[45] + u[45] - r[45] <= 1
 mccormick3[46]: x[46] + u[46] - r[46] <= 1
 mccormick3[47]: x[47] + u[47] - r[47] <= 1
 mccormick3[48]: x[48] + u[48] - r[48] <= 1
 mccormick3[49]: x[49] + u[49] - r[49] <= 1
 mccormick3[50]: x[50] + u[50] - r[50] <= 1
 mccormick3[51]: x[51] + u[51] - r[51] <= 1
 mccormick3[52]: x[52] + u[52] - r[52] <= 1
 mccormick3[53]: x[53] + u[53] - r[53] <= 1
 mccormick3[54]: x[54] + u[54] - r[54] <= 1
 mccormick3[55]: x[55] + u[55] - r[55] <= 1
 mccormick3[56]: x[56] + u[56] - r[56] <= 1
 mccormick3[57]: x[57] + u[57] - r[57] <= 1
 mccormick3[58]: x[58] + u[58] - r[58] <= 1
 mccormick3[59]: x[59] + u[59] - r[59] <= 1
 mccormick3[60]: x[60] + u[60] - r[60] <= 1
 mccormick3[61]: x[61] + u[61] - r[61] <= 1
 mccormick3[62]: x[62] + u[62] - r[62] <= 1
 mccormick3[63]: x[63] + u[63] - r[63] <= 1
 mccormick3[64]: x[64] + u[64] - r[64] <= 1
 mccormick3[65]: x[65] + u[65] - r[65] <= 1
 mccormick3[66]: x[66] + u[66] - r[66] <= 1
 mccormick3[67]: x[67] + u[67] - r[67] <= 1
 mccormick3[68]: x[68] + u[68] - r[68] <= 1
 mccormick3[69]: x[69] + u[69] - r[69] <= 1
 mccormick3[70]: x[70] + u[70] - r[70] <= 1
 mccormick3[71]: x[71] + u[71] - r[71] <= 1
 mccormick3[72]: x[72] + u[72] - r[72] <= 1
 mccormick3[73]: x[73] + u[73] - r[73] <= 1
 mccormick3[74]: x[74] + u[74] - r[74] <= 1
 mccormick3[75]: x[75] + u[75] - r[75] <= 1
 mccormick3[76]: x[76] + u[76] - r[76] <= 1
 mccormick3[77]: x[77] + u[77] - r[77] <= 1
 mccormick3[78]: x[78] + u[78] - r[78] <= 1
 mccormick3[79]: x[79] + u[79] - r[79] <= 1
 mccormick3[80]: x[80] + u[80] - r[80] <= 1
 mccormick3[81]: x[81] + u[81] - r[81] <= 1
 mccormick3[82]: x[82] + u[82] - r[82] <= 1
 mccormick3[83]: x[83] + u[83] - r[83] <= 1
 mccormick3[84]: x[84] + u[84] - r[84] <= 1
 mccormick3[85]: x[85] + u[85] - r[85] <= 1
 mccormick3[86]: x[86] + u[86] - r[86] <= 1
 mccormick3[87]: x[87] + u[87] - r[87] <= 1
 mccormick3[88]: x[88] + u[88] - r[88] <= 1
 mccormick3[89]: x[89] + u[89] - r[89] <= 1
 mccormick3[90]: x[90] + u[90] - r[90] <= 1
 mccormick3[91]: x[91] + u[91] - r[91] <= 1
 mccormick3[92]: x[92] + u[92] - r[92] <= 1
 mccormick3[93]: x[93] + u[93] - r[93] <= 1
 mccormick3[94]: x[94] + u[94] - r[94] <= 1
 mccormick3[95]: x[95] + u[95] - r[95] <= 1
 mccormick3[96]: x[96] + u[96] - r[96] <= 1
 mccormick3[97]: x[97] + u[97] - r[97] <= 1
 mccormick3[98]: x[98] + u[98] - r[98] <= 1
 mccormick3[99]: x[99] + u[99] - r[99] <= 1
 mccormick3[100]: x[100] + u[100] - r[100] <= 1
 mccormick3[101]: x[101] + u[101] - r[101] <= 1
 mccormick3[102]: x[102] + u[102] - r[102] <= 1
 mccormick3[103]: x[103] + u[103] - r[103] <= 1
 mccormick3[104]: x[104] + u[104] - r[104] <= 1
 mccormick3[105]: x[105] + u[105] - r[105] <= 1
 mccormick3[106]: x[106] + u[106] - r[106] <= 1
 mccormick3[107]: x[107] + u[107] - r[107] <= 1
 mccormick3[108]: x[108] + u[108] - r[108] <= 1
 mccormick3[109]: x[109] + u[109] - r[109] <= 1
 mccormick3[110]: x[110] + u[110] - r[110] <= 1
 mccormick3[111]: x[111] + u[111] - r[111] <= 1
 mccormick3[112]: x[112] + u[112] - r[112] <= 1
 mccormick3[113]: x[113] + u[113] - r[113] <= 1
 mccormick3[114]: x[114] + u[114] - r[114] <= 1
 mccormick3[115]: x[115] + u[115] - r[115] <= 1
 mccormick3[116]: x[116] + u[116] - r[116] <= 1
 mccormick3[117]: x[117] + u[117] - r[117] <= 1
 mccormick3[118]: x[118] + u[118] - r[118] <= 1
 mccormick3[119]: x[119] + u[119] - r[119] <= 1
 mccormick3[120]: x[120] + u[120] - r[120] <= 1
 mccormick3[121]: x[121] + u[121] - r[121] <= 1
 mccormick3[122]: x[122] + u[122] - r[122] <= 1
 mccormick3[123]: x[123] + u[123] - r[123] <= 1
 mccormick3[124]: x[124] + u[124] - r[124] <= 1
 mccormick3[125]: x[125] + u[125] - r[125] <= 1
 mccormick3[126]: x[126] + u[126] - r[126] <= 1
 mccormick3[127]: x[127] + u[127] - r[127] <= 1
 mccormick3[128]: x[128] + u[128] - r[128] <= 1
 mccormick3[129]: x[129] + u[129] - r[129] <= 1
Bounds
Binaries
 x[0] x[1] x[2] x[3] x[4] x[5] x[6] x[7] x[8] x[9] x[10] x[11] x[12] x[13]
 x[14] x[15] x[16] x[17] x[18] x[19] x[20] x[21] x[22] x[23] x[24] x[25]
 x[26] x[27] x[28] x[29] x[30] x[31] x[32] x[33] x[34] x[35] x[36] x[37]
 x[38] x[39] x[40] x[41] x[42] x[43] x[44] x[45] x[46] x[47] x[48] x[49]
 x[50] x[51] x[52] x[53] x[54] x[55] x[56] x[57] x[58] x[59] x[60] x[61]
 x[62] x[63] x[64] x[65] x[66] x[67] x[68] x[69] x[70] x[71] x[72] x[73]
 x[74] x[75] x[76] x[77] x[78] x[79] x[80] x[81] x[82] x[83] x[84] x[85]
 x[86] x[87] x[88] x[89] x[90] x[91] x[92] x[93] x[94] x[95] x[96] x[97]
 x[98] x[99] x[100] x[101] x[102] x[103] x[104] x[105] x[106] x[107] x[108]
 x[109] x[110] x[111] x[112] x[113] x[114] x[115] x[116] x[117] x[118]
 x[119] x[120] x[121] x[122] x[123] x[124] x[125] x[126] x[127] x[128]
 x[129] u[0] u[1] u[2] u[3] u[4] u[5] u[6] u[7] u[8] u[9] u[10] u[11] u[12]
 u[13] u[14] u[15] u[16] u[17] u[18] u[19] u[20] u[21] u[22] u[23] u[24]
 u[25] u[26] u[27] u[28] u[29] u[30] u[31] u[32] u[33] u[34] u[35] u[36]
 u[37] u[38] u[39] u[40] u[41] u[42] u[43] u[44] u[45] u[46] u[47] u[48]
 u[49] u[50] u[51] u[52] u[53] u[54] u[55] u[56] u[57] u[58] u[59] u[60]
 u[61] u[62] u[63] u[64] u[65] u[66] u[67] u[68] u[69] u[70] u[71] u[72]
 u[73] u[74] u[75] u[76] u[77] u[78] u[79] u[80] u[81] u[82] u[83] u[84]
 u[85] u[86] u[87] u[88] u[89] u[90] u[91] u[92] u[93] u[94] u[95] u[96]
 u[97] u[98] u[99] u[100] u[101] u[102] u[103] u[104] u[105] u[106] u[107]
 u[108] u[109] u[110] u[111] u[112] u[113] u[114] u[115] u[116] u[117]
 u[118] u[119] u[120] u[121] u[122] u[123] u[124] u[125] u[126] u[127]
 u[128] u[129] r[0] r[1] r[2] r[3] r[4] r[5] r[6] r[7] r[8] r[9] r[10]
 r[11] r[12] r[13] r[14] r[15] r[16] r[17] r[18] r[19] r[20] r[21] r[22]
 r[23] r[24] r[25] r[26] r[27] r[28] r[29] r[30] r[31] r[32] r[33] r[34]
 r[35] r[36] r[37] r[38] r[39] r[40] r[41] r[42] r[43] r[44] r[45] r[46]
 r[47] r[48] r[49] r[50] r[51] r[52] r[53] r[54] r[55] r[56] r[57] r[58]
 r[59] r[60] r[61] r[62] r[63] r[64] r[65] r[66] r[67] r[68] r[69] r[70]
 r[71] r[72] r[73] r[74] r[75] r[76] r[77] r[78] r[79] r[80] r[81] r[82]
 r[83] r[84] r[85] r[86] r[87] r[88] r[89] r[90] r[91] r[92] r[93] r[94]
 r[95] r[96] r[97] r[98] r[99] r[100] r[101] r[102] r[103] r[104] r[105]
 r[106] r[107] r[108] r[109] r[110] r[111] r[112] r[113] r[114] r[115]
 r[116] r[117] r[118] r[119] r[120] r[121] r[122] r[123] r[124] r[125]
 r[126] r[127] r[128] r[129]
End
