instances/knapsack/discrete_knapsack_uncertainty/knapsack_130_14.kp
28637
130
629

47 4.7 64
92 9.2 72
42 4.2 2
27 2.7 18
28 2.8 39
25 2.5 63
93 9.3 59
67 6.7 97
33 3.3 88
30 3.0 24
63 6.3 53
47 4.7 97
96 9.6 5
32 3.2 84
68 6.8 85
4 0.4 98
13 1.3 36
96 9.6 72
81 8.1 16
18 1.8 27
93 9.3 79
19 1.9 57
36 3.6 2
6 0.6 98
20 2.0 67
40 4.0 80
62 6.2 38
71 7.1 73
97 9.7 88
43 4.3 70
21 2.1 95
55 5.5 82
39 3.9 78
1 0.1 17
16 1.6 85
77 7.7 31
12 1.2 95
44 4.4 25
20 2.0 96
86 8.6 93
91 9.1 94
81 8.1 59
66 6.6 63
89 8.9 85
7 0.7 44
90 9.0 29
21 2.1 82
49 4.9 2
39 3.9 62
4 0.4 79
62 6.2 25
92 9.2 100
89 8.9 13
44 4.4 51
84 8.4 98
71 7.1 4
49 4.9 60
30 3.0 66
8 0.8 22
98 9.8 97
48 4.8 90
70 7.0 52
75 7.5 19
30 3.0 3
35 3.5 16
84 8.4 75
44 4.4 91
22 2.2 63
84 8.4 30
81 8.1 51
29 2.9 15
29 2.9 57
82 8.2 55
51 5.1 11
31 3.1 76
100 10.0 84
74 7.4 100
35 3.5 51
76 7.6 26
54 5.4 73
37 3.7 85
25 2.5 52
38 3.8 31
29 2.9 48
93 9.3 31
73 7.3 6
39 3.9 56
4 0.4 29
94 9.4 22
91 9.1 72
64 6.4 20
28 2.8 39
24 2.4 99
11 1.1 66
96 9.6 90
33 3.3 8
89 8.9 63
52 5.2 78
32 3.2 78
60 6.0 18
81 8.1 46
60 6.0 95
62 6.2 12
80 8.0 7
61 6.1 65
2 0.2 61
15 1.5 40
26 2.6 98
42 4.2 36
37 3.7 6
26 2.6 79
79 7.9 44
85 8.5 67
21 2.1 33
73 7.3 56
70 7.0 23
79 7.9 17
13 1.3 23
37 3.7 28
16 1.6 33
83 8.3 51
48 4.8 56
27 2.7 16
10 1.0 21
61 6.1 69
70 7.0 2
19 1.9 38
51 5.1 20
74 7.4 29
35 3.5 10

6417
609

[2.5657939573921347 0.39813013451918644 0.7320593055565522 1.5958527301119148 3.872891193530197 0.40946129712036056 3.4788576261713873 0.7116525060117161 0.22397634543744294 0.2756019734690284 2.526820569981051 4.511104251753143 0.8063700227985345 2.2750474169294916 3.430695619175833 4.539137744534076 1.0676070804404487 2.9150102225205683 3.4205702580923814 3.6084468020634177 4.184013730657126 3.8703990521449536 4.181945993317895 1.1911142321922672 2.9456107375222893 3.806447953852478 3.5074068686683963 1.8332232982676244 0.26126891363917115 1.3824885815185801 4.016993061283065 1.9736732027661572 4.552920433513719 2.3481730849762394 0.07181864400987852 3.3193620760019202 1.4019477058624783 3.7611110489238686 3.4450282236708856 0.5100217370080287 2.8376162344413793 4.513240339856532 3.3889877390445116 4.652805162584821 4.674829093627084 1.8272158480590364 3.4707943605269573 1.2559363725262747 2.63490311636281 1.5089831624781962 3.7025842916497593 3.7819113765788557 0.1532768193827867 3.8161762289935437 1.5169285376613781 2.5052596578467394 2.185995327554984 0.6350752151048515 0.46200589665317526 1.961507999339007 0.6985997477363641 4.393066257121915 1.787582221065537 3.5889329260121197 0.35987906863336633 3.8698411343559003 2.146155925299712 2.378139109478605 4.02782096754692 4.348824491181593 1.5246011962293682 3.16340067708179 0.6609048297122596 1.8613533193672713 4.107554932967761 0.6305340263880697 1.6037726823831582 1.0203845306646044 3.07309309332123 1.5475648098397756 0.8118398310632942 0.9581791811461762 2.60193788085631 3.3233391157387926 1.0430230679321386 2.379488484595979 1.6711778905897756 4.490529103865158 3.650172311878609 1.5737569789168677 2.4665800912540643 3.406300407131139 1.1085942310737906 1.6163275043055585 0.9296837404383007 2.674466577946319 2.693103040602319 1.4037980364774765 4.482657242132118 2.4159560514088447 3.4900045441584417 3.273284733173531 1.2861388660840503 0.4743005218698957 1.21122176119219 1.9489581845797164 1.4688180452073847 1.3758728253794297 2.1840273981870157 0.1551006714019117 1.5114372783556038 3.6490557863081947 2.34454942404481 0.6945777450321391 4.066791919913882 4.601208583834207 0.6106965774783846 0.2666713076413568 1.9751758936110861 3.7794682453793724 0.5415280368882448 1.0019677119359232 2.9894377081954047 0.22756368315377515 1.5785979126873348 3.995614285642222 2.4325998649186817 0.16185362534268988 1.9320576932981859 0.6550784205397323]

[77 26 76 89 14 47 31 45 91 56 89 9 34 70 46 74 15 42 67 40 47 73 42 80 42 18 28 37 15 29 15 29 1 79 62 27 78 26 98 100 85 67 40 91 61 12 27 47 1 22 20 38 83 18 6 93 87 72 74 20 2 60 81 8 41 2 54 48 14 19 91 47 32 61 85 46 40 41 86 56 3 23 96 83 23 87 77 38 4 17 22 54 26 89 78 43 39 34 34 30 3 26 20 46 87 76 61 36 68 55 76 65 27 95 31 84 21 95 35 18 73 46 85 84 91 68 57 73 52 1]
